p cnf 22 43
1 2 3 4 5 0
-1 -2 0
-1 -3 0
-1 -4 0
-1 -5 0
-2 -3 0
-2 -4 0
-2 -5 0
-3 -4 0
-3 -5 0
-4 -5 0
-1 -18 17 0
-2 -19 17 0
-3 -20 17 0
-4 -21 17 0
-5 -22 17 0
-1 12 0
1 -12 0
-2 13 0
2 -13 0
-3 14 0
3 -14 0
-4 15 0
4 -15 0
-5 16 0
5 -16 0
-6 17 0
-1 -18 7 0
-7 1 0
-7 18 0
-2 -19 8 0
-8 2 0
-8 19 0
-3 -20 9 0
-9 3 0
-9 20 0
-4 -21 10 0
-10 4 0
-10 21 0
-5 -22 11 0
-11 5 0
-11 22 0
7 8 9 10 11 6 -17 0
